(set-logic UFDT)
(declare-datatypes ((nat 0)) (((zero) (s (s0 nat)))))
(declare-fun add (nat nat) nat)
(non-erasing add 2)
(injective add (true true))
(declare-fun leq (nat nat) Bool)
(assert (forall ((y nat)) (= (add zero y) y)))
(assert (forall ((x nat) (y nat)) (= (add (s x) y) (s (add x y)))))
(assert (forall ((y nat)) (leq zero y)))
(assert (forall ((x nat)) (not (leq (s x) zero))))
(assert (forall ((x nat) (y nat)) (= (leq (s x) (s y)) (leq x y))))
(assert (not (forall ((v0 nat) (v1 nat) (v2 nat) (v3 nat) (v4 nat) (v5 nat) (v6 nat) (v7 nat) (v8 nat)) (= (add (s (s (add (s v5) (add (s (s (s (add (add v0 (s v4)) (s (add v8 (add (s v3) v2))))))) v1)))) (s (s (s (s (s (add v7 (s (s (add v6 (s v3))))))))))) (add (s (s (add v1 (s (s v8))))) (add (s (s v2)) (add (s v7) (s (s (add (s (add (add (add (s (s (add (s v0) v3))) (s (s v5))) v6) (s v3))) (s v4)))))))))))
(check-sat)
